COLUMNS

passenger_count
pickup_ID
dropoff_ID
request_time_sec
pickup_district
dropoff_district
LDuals
IDuals
vehicle_ID
pick_position
drop_position

REQUESTS_INFO
1      870       604       29202     291       189       184       184       64        1         2         
2      889       788       29113     290       290       327       327       101       1         2         
1      216       604       29225     178       189       140       140       171       1         3         
1      1120      1619      29158     84        296       252       252       194       1         2         
3      883       739       29143     290       189       257       257       198       1         3         
1      273       674       29247     206       189       145       145       230       1         3         
1      1087      1044      29226     291       291       157       157       254       1         3         
2      840       504       29220     290       52        169       169       262       1         4         
2      887       924       29224     290       290       197       197       262       2         3         
1      154       247       29220     286       266       106       106       282       1         2         
3      1218      1218      29194     84        84        165       165       324       1         2         
1      906       792       29229     290       290       211       211       364       1         3         
1      837       783       29246     290       50        137       137       396       1         3         
1      778       652       29136     131       189       218       218       409       1         2         
1      1065      959       29202     291       291       195       195       460       1         2         
1      505       629       29249     52        189       119       119       468       1         2         
3      937       1207      29205     291       192       173       173       472       1         3         
1      793       672       29220     290       189       179       179       491       1         2         
1      1000      626       29209     291       189       188       188       495       1         3         
3      1023      578       29031     291       189       365       365       534       1         4         
1      1023      649       29230     291       189       166       166       534       2         3         
1      864       724       29170     290       290       238       238       649       1         2         
2      1091      850       29151     291       291       240       240       652       1         3         
1      949       936       29228     290       291       190       190       674       1         4         
1      608       554       29229     189       189       135       135       694       1         2         
1      950       1076      29168     290       84        285       285       708       1         3         
3      950       905       29193     290       290       255       255       708       2         4         
1      792       969       29246     290       290       134       134       710       1         4         
1      928       1218      29219     290       84        247       247       749       1         2         
3      925       117       29101     290       286       317       317       792       1         3         
1      887       1144      29191     290       84        230       230       807       1         4         
1      329       627       29193     127       189       157       157       850       1         3         
1      926       46        29242     290       98        188       188       877       1         4         
1      523       441       29220     52        168       128       128       883       1         3         
1      865       507       29220     290       189       169       169       888       1         4         
1      688       308       29229     131       127       132       132       899       1         3         
3      909       794       29203     290       290       230       230       923       1         2         
1      462       649       29247     189       189       94        94        958       1         2         
1      839       627       29230     290       189       174       174       984       1         3         
1      906       719       29163     290       189       277       277       1064      1         2         
2      1032      628       29196     84        189       222       222       1078      1         3         
4      802       727       29221     291       290       138       138       1093      1         2         
3      838       792       29187     290       290       207       207       1104      1         2         
3      947       484       29090     290       189       346       346       1106      1         3         
1      1055      925       29203     84        290       201       201       1108      1         2         
1      43        604       29227     9         189       98        98        1113      1         2         
1      795       940       29175     290       291       212       212       1116      1         3         
3      889       824       29126     290       291       314       314       1116      2         4         
2      968       1032      29160     290       84        290       290       1135      1         2         
1      983       1021      29234     291       291       150       150       1168      1         2         
1      947       651       29203     290       189       233       233       1188      1         2         
1      834       208       29238     290       286       164       164       1194      1         3         
1      817       193       29245     290       266       139       139       1217      1         4         
1      817       577       29246     290       189       138       138       1217      2         3         
1      929       938       29228     290       291       218       218       1226      1         4         
3      1401      1285      29235     129       129       192       192       1250      1         2         
3      1025      630       29145     291       189       283       283       1272      1         2         
3      767       527       29245     290       52        107       107       1274      1         3         
1      947       627       29195     290       189       241       241       1278      1         3         
4      886       1582      28181     290       296       1251      1251      1283      1         2         
1      824       718       29249     291       189       134       134       1301      1         2         
3      927       621       29173     290       280       253       253       1312      1         3         
2      813       372       29243     290       119       163       163       1326      1         3         
1      1057      972       29223     84        290       212       212       1357      1         3         
1      928       925       29109     290       290       357       357       1367      1         2         
1      1068      1169      29207     291       291       195       195       1369      1         2         
3      871       1023      29202     291       291       189       189       1387      1         2         
1      928       535       29221     290       189       245       245       1402      1         3         
1      374       676       29224     119       189       127       127       1422      1         3         
3      746       559       29228     290       189       159       159       1423      1         2         
1      950       460       29191     290       189       262       262       1428      1         3         
1      969       835       29043     290       290       378       378       1430      1         2         
1      914       646       29213     291       280       166       166       1435      1         3         
1      1047      602       29248     291       189       158       158       1436      1         4         
3      347       715       29226     299       131       180       180       1443      1         2         
1      881       1032      29250     290       84        0         0         0         0         0         
1      155       858       29250     286       290       0         0         0         0         0         
1      739       848       29250     189       291       0         0         0         0         0         
1      860       947       29250     290       290       0         0         0         0         0         
1      963       597       29251     50        131       0         0         0         0         0         
1      233       604       29251     206       189       0         0         0         0         0         
1      578       372       29251     189       119       0         0         0         0         0         
1      189       652       29251     286       189       0         0         0         0         0         
3      364       376       29251     299       168       0         0         0         0         0         
1      627       579       29251     189       189       0         0         0         0         0         
1      248       647       29252     266       280       0         0         0         0         0         
1      723       652       29252     290       189       0         0         0         0         0         
1      442       355       29252     168       119       0         0         0         0         0         
1      937       840       29252     291       290       0         0         0         0         0         
1      527       824       29252     52        291       0         0         0         0         0         
2      504       694       29252     52        189       0         0         0         0         0         
3      504       694       29252     52        189       0         0         0         0         0         
1      621       922       29253     280       50        0         0         0         0         0         
1      794       604       29253     290       189       0         0         0         0         0         
1      556       388       29253     199       299       0         0         0         0         0         
1      523       526       29254     52        52        0         0         0         0         0         
1      793       556       29254     290       199       0         0         0         0         0         
1      667       479       29254     131       52        0         0         0         0         0         
1      824       720       29254     291       290       0         0         0         0         0         
3      549       738       29254     52        189       0         0         0         0         0         
2      549       738       29254     52        189       0         0         0         0         0         
2      596       574       29255     131       189       0         0         0         0         0         
1      598       697       29255     189       189       0         0         0         0         0         
1      549       602       29255     52        189       0         0         0         0         0         
1      531       604       29255     189       189       0         0         0         0         0         
1      864       530       29255     290       189       0         0         0         0         0         
1      527       603       29256     52        189       0         0         0         0         0         
1      512       561       29256     199       189       0         0         0         0         0         
1      724       536       29256     290       189       0         0         0         0         0         
2      560       793       29256     189       290       0         0         0         0         0         
1      985       693       29256     50        280       0         0         0         0         0         
3      560       793       29256     189       290       0         0         0         0         0         
1      882       604       29256     290       189       0         0         0         0         0         
1      1094      945       29256     84        50        0         0         0         0         0         
1      369       504       29256     52        52        0         0         0         0         0         
3      297       390       29257     277       52        0         0         0         0         0         
1      741       534       29257     50        199       0         0         0         0         0         
2      546       232       29257     52        266       0         0         0         0         0         
1      940       768       29257     291       290       0         0         0         0         0         
1      484       555       29257     189       199       0         0         0         0         0         
2      297       390       29257     277       52        0         0         0         0         0         
1      99        173       29258     286       286       0         0         0         0         0         
2      1128      910       29258     291       290       0         0         0         0         0         
1      1196      536       29259     129       189       0         0         0         0         0         
1      701       556       29259     290       199       0         0         0         0         0         
3      663       938       29259     131       291       0         0         0         0         0         
1      983       694       29259     291       189       0         0         0         0         0         
1      981       120       29259     291       57        0         0         0         0         0         
1      466       581       29260     199       189       0         0         0         0         0         
1      526       593       29260     52        52        0         0         0         0         0         
2      345       533       29261     299       199       0         0         0         0         0         
3      937       718       29261     291       189       0         0         0         0         0         
1      991       371       29261     290       52        0         0         0         0         0         
3      937       718       29261     291       189       0         0         0         0         0         
1      1001      827       29261     291       291       0         0         0         0         0         
1      527       555       29262     52        199       0         0         0         0         0         
1      840       35        29262     290       98        0         0         0         0         0         
1      487       375       29262     199       119       0         0         0         0         0         
1      620       648       29262     131       189       0         0         0         0         0         
1      508       552       29262     199       189       0         0         0         0         0         
1      718       875       29263     189       291       0         0         0         0         0         
3      418       721       29263     168       290       0         0         0         0         0         
2      418       721       29263     168       290       0         0         0         0         0         
2      345       369       29264     299       52        0         0         0         0         0         
3      345       369       29264     299       52        0         0         0         0         0         
1      527       728       29264     52        290       0         0         0         0         0         
1      1324      1211      29264     129       129       0         0         0         0         0         
1      837       116       29264     290       9         0         0         0         0         0         
1      1245      1046      29264     192       291       0         0         0         0         0         
3      269       949       29265     127       290       0         0         0         0         0         
1      258       670       29265     87        280       0         0         0         0         0         
1      772       724       29265     290       290       0         0         0         0         0         
1      894       670       29266     291       280       0         0         0         0         0         
2      972       628       29266     290       189       0         0         0         0         0         
1      527       390       29266     52        52        0         0         0         0         0         
1      350       574       29266     127       189       0         0         0         0         0         
2      419       507       29266     168       189       0         0         0         0         0         
1      573       600       29266     189       280       0         0         0         0         0         
1      817       397       29266     290       168       0         0         0         0         0         
1      292       416       29266     87        100       0         0         0         0         0         
1      487       355       29267     199       119       0         0         0         0         0         
1      466       627       29267     199       189       0         0         0         0         0         
1      265       116       29267     299       9         0         0         0         0         0         
1      876       720       29267     50        290       0         0         0         0         0         
1      992       1016      29267     290       84        0         0         0         0         0         
2      377       748       29268     168       290       0         0         0         0         0         
1      608       212       29268     189       266       0         0         0         0         0         
1      596       695       29268     131       189       0         0         0         0         0         
2      549       593       29268     52        52        0         0         0         0         0         
1      836       583       29268     290       189       0         0         0         0         0         
1      34        48        29268     98        98        0         0         0         0         0         
1      269       117       29268     127       286       0         0         0         0         0         
1      189       579       29269     286       189       0         0         0         0         0         
1      501       414       29269     52        100       0         0         0         0         0         
1      915       116       29270     291       9         0         0         0         0         0         
1      913       621       29270     291       280       0         0         0         0         0         
1      269       395       29270     127       100       0         0         0         0         0         
1      859       393       29271     290       52        0         0         0         0         0         
1      349       534       29271     127       199       0         0         0         0         0         
2      115       138       29271     9         57        0         0         0         0         0         
1      364       304       29271     299       299       0         0         0         0         0         
2      374       35        29272     119       98        0         0         0         0         0         
1      354       575       29272     119       189       0         0         0         0         0         
2      484       228       29272     189       266       0         0         0         0         0         
1      771       35        29272     290       98        0         0         0         0         0         
1      152       373       29273     9         119       0         0         0         0         0         
1      1489      697       29273     296       189       0         0         0         0         0         
1      622       552       29273     280       189       0         0         0         0         0         
1      768       769       29273     290       290       0         0         0         0         0         
1      766       858       29274     290       290       0         0         0         0         0         
1      399       116       29274     168       9         0         0         0         0         0         
3      1000      732       29274     291       131       0         0         0         0         0         
1      813       646       29274     290       280       0         0         0         0         0         
3      1000      732       29274     291       131       0         0         0         0         0         
2      951       864       29274     290       290       0         0         0         0         0         
1      928       925       29275     290       290       0         0         0         0         0         
1      511       374       29276     199       119       0         0         0         0         0         
1      675       669       29276     189       280       0         0         0         0         0         
1      419       352       29276     168       119       0         0         0         0         0         
1      441       580       29276     168       189       0         0         0         0         0         
1      663       669       29276     131       280       0         0         0         0         0         
2      370       413       29276     52        52        0         0         0         0         0         
3      815       724       29276     290       290       0         0         0         0         0         
3      815       724       29276     290       290       0         0         0         0         0         
1      857       528       29277     290       52        0         0         0         0         0         
1      214       268       29277     207       299       0         0         0         0         0         
1      233       399       29277     206       168       0         0         0         0         0         
1      735       578       29277     131       189       0         0         0         0         0         
1      325       727       29277     299       290       0         0         0         0         0         
1      598       717       29277     189       189       0         0         0         0         0         
1      1187      651       29278     291       189       0         0         0         0         0         
1      886       1032      29278     290       84        0         0         0         0         0         
1      1076      1054      29278     84        84        0         0         0         0         0         
1      527       390       29278     52        52        0         0         0         0         0         
1      439       398       29278     189       168       0         0         0         0         0         
1      948       903       29278     290       290       0         0         0         0         0         
3      478       285       29279     52        299       0         0         0         0         0         
1      905       748       29279     290       290       0         0         0         0         0         
1      527       399       29279     52        168       0         0         0         0         0         
1      652       189       29279     189       286       0         0         0         0         0         
1      268       698       29279     299       189       0         0         0         0         0         
1      733       627       29279     131       189       0         0         0         0         0         
3      478       285       29279     52        299       0         0         0         0         0         
1      848       647       29279     291       280       0         0         0         0         0         
